9576
0 1 1 1 0 1 1 1 0 1 0 0 1 0 0 1 0 0 1 0 
5 5 5 5 5 5 5 5 1 7 7 7 7 7 7 7 7 12 3 3 12 3 12 12 12 9 9 9 9 9 9 9 15 15 18 18 18 18 18 18 18 18 18 18 5 5 7 12 3 15 15 3 7 18 5 15 3 3 1 6 18 2 15 15 3 3 2 18 6 5 18 18 6 3 3 15 3 6 6 2 18 1 3 15 15 3 1 6 15 3 2 2 9 2 2 18 1 6 1 5 